1 - 0
2 - 0
3 - 0
4 - 0
5 - 0
6 - 0
7 - 0
8 - 0
9 - 0
10 - 0
11 - 0
12 - 0
13 - 0
14 - 0
15 - 0
16 - 0
17 - 0
18 - 0
19 - 0
20 - 0
21 - 0
22 - 0
23 - 0
24 - 0
25 - 0
26 - 0
27 - 0
28 - 0
29 - 0
30 - 0
31 - 0
32 - 0
33 - 0
34 - 0
35 - 0
36 - 0
37 - 0
38 - 0
39 - 0
40 - 0
41 - 0
42 - 0
43 - 0
44 - 0
45 - 0
46 - 0
47 - 0
48 - 0
49 - 0
50 - 0
51 - 0
52 - 0
53 - 0
54 - 0
55 - 0
56 - 0
57 - 0
58 - 0
59 - 0
60 - 0
61 - 0
62 - 0
63 - 0
64 - 0
65 - 0
66 - 0
67 - 0
68 - 0
69 - 0
70 - 0
71 - 0
72 - 0
73 - 0
74 - 0
75 - 0
76 - 0
77 - 0
78 - 0
79 - 0
80 - 0
81 - 0
82 - 0
83 - 0
84 - 0
85 - 0
86 - 0
87 - 0
88 - 0
89 - 0
90 - 0
91 - 0
92 - 0
93 - 0
94 - 0
95 - 0
96 - 0
97 - 0
98 - 0
99 - 0
100 - 0
101 - 0
102 - 0
103 - 0
104 - 0
105 - 0
106 - 0
107 - 0
108 - 0
109 - 0
110 - 0
111 - 0
112 - 0
113 - 0
114 - 0
115 - 0
116 - 0
117 - 0
118 - 0
119 - 0
120 - 0
121 - 0
122 - 0
123 - 0
124 - 0
125 - 0
126 - 0
127 - 0
128 - 0
129 - 0
130 - 0
131 - 0
132 - 0
133 - 0
134 - 0
135 - 0
136 - 0
137 - 0
138 - 0
139 - 0
140 - 0
141 - 0
142 - 0
143 - 0
144 - 0
145 - 0
146 - 0
147 - 0
148 - 0
149 - 0
150 - 0
151 - 0
152 - 0
153 - 0
154 - 0
155 - 0
156 - 0
157 - 0
158 - 0
159 - 0
160 - 0
161 - 0
162 - 2
163 - 13
164 - 24
165 - 39
166 - 75
167 - 120
168 - 214
169 - 333
170 - 501
171 - 697
172 - 1000
173 - 1321
174 - 1719
175 - 2122
176 - 2457
177 - 2885
178 - 3117
179 - 3304
180 - 3360
181 - 3402
182 - 3673
183 - 3626
184 - 3496
185 - 3444
186 - 3183
187 - 2956
188 - 2608
189 - 2458
190 - 2236
191 - 1994
192 - 1921
193 - 1762
194 - 1506
195 - 1487
196 - 1262
197 - 1157
198 - 1027
199 - 986
200 - 931
201 - 909
202 - 902
203 - 806
204 - 832
205 - 831
206 - 732
207 - 735
208 - 744
209 - 691
210 - 722
211 - 671
212 - 668
213 - 671
214 - 673
215 - 636
216 - 643
217 - 644
218 - 606
219 - 577
220 - 566
221 - 602
222 - 601
223 - 558
224 - 505
225 - 525
226 - 524
227 - 511
228 - 514
229 - 469
230 - 427
231 - 461
232 - 479
233 - 490
234 - 399
235 - 407
236 - 357
237 - 416
238 - 337
239 - 364
240 - 412
241 - 334
242 - 369
243 - 350
244 - 352
245 - 316
246 - 344
247 - 317
248 - 336
249 - 324
250 - 316
251 - 284
252 - 285
253 - 268
254 - 248
255 - 236
256 - 246
257 - 269
258 - 258
259 - 219
260 - 228
261 - 254
262 - 229
263 - 248
264 - 196
265 - 205
266 - 212
267 - 201
268 - 220
269 - 201
270 - 211
271 - 172
272 - 196
273 - 165
274 - 189
275 - 193
276 - 156
277 - 197
278 - 188
279 - 167
280 - 131
281 - 152
282 - 169
283 - 167
284 - 164
285 - 166
286 - 137
287 - 159
288 - 148
289 - 162
290 - 167
291 - 130
292 - 154
293 - 142
294 - 148
295 - 137
296 - 149
297 - 122
298 - 128
299 - 138
300 - 140
301 - 119
302 - 146
303 - 133
304 - 129
305 - 131
306 - 126
307 - 124
308 - 128
309 - 122
310 - 115
311 - 143
312 - 109
313 - 125
314 - 130
315 - 117
316 - 130
317 - 104
318 - 128
319 - 128
320 - 123
321 - 110
322 - 102
323 - 103
324 - 91
325 - 100
326 - 114
327 - 101
328 - 112
329 - 99
330 - 103
331 - 110
332 - 109
333 - 96
334 - 77
335 - 85
336 - 71
337 - 86
338 - 80
339 - 65
340 - 62
341 - 55
342 - 44
343 - 51
344 - 31
345 - 27
346 - 19
347 - 20
348 - 5
349 - 2
350 - 0

0.1 - 71756
0.2 - 18624
0.3 - 7593
0.4 - 3947
0.5 - 2390
0.6 - 1676
0.7 - 1209
0.8 - 885
0.9 - 775
1 - 629
